10
90
1 2 1 3
1 3 3 3
1 4 16 6
1 5 15 8
1 6 19 9
1 7 15 5
1 8 2 2
1 9 2 4
2 3 2 1
2 4 12 7
2 5 17 8
2 6 16 9
2 7 18 8
2 8 1 3
2 9 2 2
3 4 13 8
3 5 66 7
3 6 8 8
3 7 90 6
3 8 6 2
3 9 3 2
4 5 1 5
4 6 2 8
4 7 2 9
4 8 8 5
4 9 33 6
5 6 0 3
5 7 1 2
5 8 23 6
5 9 7 6
6 7 1 2
6 8 8 8
6 9 7 8
7 8 46 7
7 9 99 9
8 9 2 4
0 1 99 31
0 2 88 31
0 3 75 31
0 4 99 31
0 5 80 31
0 6 85 31
0 7 15 31
0 8 10 31
0 9 90 31